c description: Random 3-CNF over 15 variables and 45 clauses
c generator: CNFgen (0.9.0)
c copyright: (C) 2012-2020 Massimo Lauria <massimo.lauria@uniroma1.it>
c url: https://massimolauria.net/cnfgen
c
p cnf 15 45
-2 5 12 0
-6 -10 12 0
-3 -9 -15 0
-3 -7 12 0
-4 7 10 0
-5 -7 15 0
5 -13 -15 0
-1 -6 -15 0
4 8 -11 0
3 -9 -10 0
-6 9 -11 0
6 9 -11 0
-9 10 -15 0
-5 8 -14 0
2 4 15 0
5 -7 -8 0
6 10 -14 0
2 5 15 0
-6 -9 12 0
-4 -5 -9 0
7 -11 -13 0
-4 9 -14 0
-1 -9 11 0
-4 8 -14 0
2 -11 -15 0
-7 -9 10 0
8 -9 11 0
-11 -12 13 0
7 8 -13 0
1 11 -13 0
4 -5 7 0
7 8 -10 0
11 -14 15 0
-7 10 -13 0
-2 -5 -10 0
-3 -9 -11 0
6 7 -9 0
-5 7 11 0
3 12 13 0
-3 12 -15 0
-1 3 10 0
-3 -6 -8 0
-3 -5 -15 0
11 12 15 0
1 9 -11 0